25
1000 1000
800 986
848 46
214 390
212 652
453 105
774 290
260 729
835 752
66 594
692 231
402 600
41 368
694 825
90 842
416 37
936 989
65 391
815 667
800 280
781 526
663 382
725 485
619 519
851 231
30 834
